15 64 96 139 51 22 78 156 30 131 77 69 192 8 112 92 129 65 164 94 60 197 67 95 151 27 81 177 181 9 79 44 84 162 0 42 52 171 86 98 148 183 33 159 175 185 199 111 28 190 73 127 102 72 141 11 91 150 34 29 116 176 24 5 178 66 76 56 4 115 186 168 21 53 90 154 122 184 136 85 142 19 118 105 47 145 2 14 124 172 39 54 63 180 133 6 57 87 187 101 117 18 59 173 43 23 160 12 40 26 166 191 25 103 97 88 110 138 198 100 169 31 74 152 41 170 188 158 71 165 50 48 89 137 195 70 126 114 130 68 108 157 123 36 153 167 125 143 46 140 7 37 161 134 163 182 49 107 16 10 35 155 174 104 109 179 132 1 80 146 45 113 147 13 38 32 135 119 194 99 58 17 62 75 120 121 189 128 193 106 93 196 83 149 3 144 55 61 82 20